
  22   10
  10   10   10   10   10   10   10   10   10   10

   0   0   0   0   0   0   0   0   0   0   0   7 2 4 5 7 8 9 18 
   1   0  10   0   0   0   0   0   0   0   0   2 11 3 
   3   0   0   0   0   0   0   0   0  10   0   4 17 13 12 6 
   5   0   0   0   0   0   0   0   0  10   0   4 17 12 11 6 
   8   0   0   0   0   0  10   0   0   0   0   3 17 11 6 
   1   0   0   0   0   0   0   0   0   0  10   4 21 16 15 10 
   7   0   0   0   0   0   0   0   0   0  10   3 15 11 10 
   5   0   0  10   0   0   0   0   0   0   0   1 10 
   8   0   0   0  10   0   0   0   0   0   0   2 21 19 
   9   0   0  10   0   0   0   0   0   0   0   1 14 
   6   0   0   0   0   0   0   0   0   0  10   1 14 
   3   0   0   0   0   0   0   0   0   0  10   1 14 
   9   0   0   0   0   0   0   0   0   0  10   1 14 
   8   0   0  10   0   0   0   0   0   0   0   1 19 
   9   0   0  10   0   0   0   0   0   0   0   1 20 
   5   0   0   0   0   0   0   0   0   0  10   1 20 
   5   0   0   0   0   0   0   0  10   0   0   1 19 
   6   0   0   0   0   0   0   0  10   0   0   1 20 
   1  10   0   0   0   0   0   0   0   0   0   1 22
   7   0   0  10   0   0   0   0   0   0   0   1 22
   5   0   0  10   0   0   0   0   0   0   0   1 22
   0   0   0   0   0   0   0   0   0   0   0   0 
